DIMACS_lns/graph-1000-256.col
p edge 1000 1840
e 1 226
e 1 66
e 1 403
e 2 161
e 2 585
e 2 941
e 2 934
e 2 69
e 2 343
e 2 869
e 2 446
e 3 488
e 3 214
e 3 953
e 4 755
e 4 593
e 4 153
e 4 917
e 5 845
e 5 839
e 5 810
e 5 96
e 5 59
e 5 244
e 5 117
e 5 178
e 6 402
e 6 745
e 6 541
e 7 273
e 7 45
e 7 570
e 8 107
e 8 38
e 8 814
e 8 749
e 8 260
e 8 213
e 9 921
e 9 288
e 9 890
e 11 931
e 11 669
e 11 300
e 11 447
e 12 121
e 12 844
e 12 307
e 12 183
e 12 932
e 12 534
e 13 453
e 13 324
e 13 195
e 13 827
e 13 544
e 13 853
e 13 557
e 14 446
e 14 914
e 14 584
e 14 407
e 14 901
e 15 646
e 15 107
e 15 241
e 17 101
e 17 930
e 17 373
e 18 73
e 18 823
e 18 51
e 18 194
e 19 598
e 19 449
e 19 91
e 19 507
e 20 706
e 20 105
e 20 79
e 20 109
e 20 917
e 21 80
e 21 720
e 21 135
e 24 494
e 24 579
e 24 112
e 24 823
e 24 256
e 24 417
e 25 786
e 25 705
e 25 477
e 25 457
e 26 662
e 26 57
e 26 955
e 26 439
e 26 528
e 26 839
e 27 195
e 27 822
e 27 143
e 30 518
e 30 228
e 30 760
e 31 669
e 31 212
e 31 377
e 31 961
e 32 35
e 32 774
e 32 345
e 32 857
e 32 347
e 32 738
e 32 496
e 32 348
e 32 135
e 33 201
e 33 945
e 33 415
e 33 958
e 33 493
e 33 640
e 34 594
e 34 55
e 34 971
e 34 279
e 34 121
e 35 595
e 35 289
e 35 300
e 35 510
e 35 243
e 35 246
e 35 698
e 36 637
e 36 685
e 36 43
e 37 701
e 37 884
e 37 73
e 37 39
e 37 420
e 38 315
e 38 284
e 38 677
e 39 385
e 39 629
e 39 573
e 39 386
e 39 74
e 39 930
e 39 223
e 39 632
e 40 391
e 40 865
e 40 434
e 40 324
e 40 91
e 41 77
e 41 161
e 41 301
e 42 264
e 42 790
e 42 475
e 43 620
e 43 109
e 43 513
e 43 309
e 43 921
e 43 343
e 43 232
e 44 415
e 44 253
e 44 769
e 44 182
e 44 839
e 44 162
e 44 369
e 45 625
e 45 945
e 45 247
e 45 849
e 45 869
e 45 769
e 45 103
e 46 264
e 46 419
e 46 473
e 46 986
e 46 76
e 46 269
e 46 970
e 48 237
e 48 623
e 48 766
e 48 942
e 48 754
e 49 839
e 49 208
e 49 197
e 50 937
e 50 213
e 50 103
e 51 202
e 51 91
e 51 540
e 51 981
e 52 214
e 52 834
e 52 621
e 53 242
e 53 113
e 53 416
e 53 637
e 53 918
e 53 755
e 54 860
e 54 462
e 54 714
e 54 172
e 55 312
e 55 917
e 55 455
e 55 844
e 56 748
e 56 816
e 56 743
e 57 383
e 57 803
e 57 242
e 57 963
e 58 72
e 58 958
e 58 534
e 58 89
e 58 334
e 58 837
e 59 493
e 59 314
e 59 699
e 59 694
e 59 946
e 60 423
e 60 657
e 60 991
e 61 319
e 61 861
e 61 843
e 61 467
e 61 803
e 61 935
e 62 293
e 62 606
e 62 292
e 63 105
e 63 460
e 63 551
e 63 292
e 65 528
e 65 595
e 65 198
e 65 66
e 66 977
e 66 449
e 66 974
e 67 427
e 67 525
e 67 989
e 67 657
e 68 495
e 68 538
e 68 677
e 68 106
e 68 384
e 68 251
e 69 75
e 69 528
e 69 982
e 69 802
e 69 272
e 69 994
e 69 911
e 69 868
e 70 338
e 70 911
e 70 979
e 70 641
e 71 854
e 71 500
e 71 104
e 71 260
e 72 350
e 72 525
e 72 750
e 73 497
e 73 585
e 73 537
e 73 145
e 73 496
e 73 173
e 74 838
e 74 328
e 74 941
e 74 935
e 74 556
e 74 103
e 75 571
e 75 203
e 75 459
e 75 519
e 75 500
e 76 238
e 76 186
e 76 825
e 77 475
e 77 216
e 77 731
e 77 930
e 77 288
e 78 258
e 78 391
e 78 231
e 79 423
e 79 154
e 79 462
e 79 882
e 80 203
e 80 167
e 80 917
e 81 169
e 81 597
e 81 916
e 81 629
e 82 94
e 82 744
e 82 877
e 82 966
e 82 554
e 82 236
e 83 449
e 83 439
e 83 190
e 83 109
e 83 291
e 83 397
e 84 163
e 84 270
e 84 723
e 84 698
e 86 290
e 86 441
e 86 829
e 86 531
e 87 442
e 87 447
e 87 513
e 88 952
e 88 767
e 88 554
e 88 175
e 88 770
e 88 190
e 88 413
e 88 779
e 89 664
e 89 157
e 89 828
e 90 131
e 90 624
e 90 142
e 90 437
e 91 346
e 91 232
e 92 485
e 92 255
e 92 886
e 92 134
e 92 100
e 92 121
e 93 346
e 93 114
e 93 966
e 93 634
e 94 742
e 94 134
e 94 904
e 94 881
e 95 778
e 95 845
e 95 384
e 95 572
e 96 274
e 96 181
e 96 930
e 96 726
e 97 463
e 97 729
e 97 592
e 97 877
e 97 403
e 98 590
e 98 349
e 98 440
e 98 444
e 99 730
e 99 177
e 99 746
e 99 504
e 99 564
e 100 448
e 100 595
e 100 642
e 100 597
e 100 711
e 100 180
e 101 267
e 101 343
e 101 302
e 102 810
e 102 134
e 102 288
e 102 962
e 102 242
e 103 648
e 103 829
e 103 201
e 103 884
e 103 602
e 104 608
e 104 886
e 105 287
e 105 747
e 105 793
e 105 903
e 105 174
e 105 971
e 106 905
e 106 848
e 107 805
e 107 627
e 107 407
e 107 144
e 107 183
e 107 172
e 107 620
e 108 900
e 108 132
e 108 799
e 109 874
e 110 235
e 110 576
e 110 838
e 110 869
e 111 361
e 111 241
e 111 240
e 111 194
e 111 273
e 112 423
e 112 361
e 113 942
e 113 218
e 113 273
e 114 538
e 114 854
e 114 868
e 114 255
e 114 396
e 115 971
e 115 959
e 115 486
e 117 845
e 117 757
e 117 341
e 117 222
e 117 294
e 117 437
e 117 928
e 121 331
e 121 214
e 122 937
e 122 978
e 122 145
e 122 124
e 122 965
e 122 699
e 123 617
e 123 890
e 123 647
e 123 284
e 123 838
e 124 205
e 124 412
e 124 420
e 124 734
e 125 313
e 125 830
e 125 579
e 125 833
e 126 708
e 126 277
e 126 986
e 129 413
e 129 451
e 129 341
e 129 771
e 131 720
e 131 279
e 131 908
e 131 798
e 131 525
e 132 733
e 132 450
e 132 156
e 132 944
e 132 360
e 134 859
e 134 341
e 134 389
e 134 778
e 134 520
e 135 320
e 135 963
e 135 767
e 135 769
e 138 510
e 138 666
e 138 435
e 138 218
e 138 487
e 139 675
e 139 182
e 139 280
e 139 817
e 140 590
e 140 617
e 140 645
e 140 334
e 141 989
e 141 486
e 141 213
e 141 980
e 141 491
e 142 938
e 142 221
e 143 479
e 143 697
e 143 745
e 144 994
e 144 409
e 145 930
e 146 1000
e 146 214
e 146 692
e 146 577
e 146 416
e 146 443
e 147 483
e 147 567
e 147 653
e 147 906
e 149 862
e 149 178
e 149 804
e 149 772
e 149 624
e 150 545
e 150 412
e 150 244
e 150 702
e 150 597
e 151 743
e 151 183
e 151 823
e 151 225
e 152 157
e 152 158
e 152 292
e 153 192
e 153 793
e 153 429
e 153 874
e 154 709
e 154 203
e 154 206
e 155 501
e 155 550
e 155 392
e 156 922
e 156 391
e 156 255
e 156 896
e 157 228
e 157 374
e 157 879
e 157 319
e 158 543
e 158 220
e 158 526
e 160 222
e 160 528
e 160 221
e 160 486
e 160 587
e 161 556
e 161 290
e 162 832
e 162 798
e 162 600
e 163 617
e 163 503
e 163 873
e 163 271
e 163 640
e 163 977
e 164 730
e 164 670
e 164 507
e 165 545
e 165 205
e 165 258
e 165 770
e 166 791
e 166 837
e 166 358
e 167 834
e 167 958
e 167 793
e 167 493
e 169 820
e 169 620
e 169 617
e 170 246
e 170 233
e 170 235
e 172 551
e 172 918
e 172 839
e 172 685
e 172 983
e 173 311
e 173 740
e 173 432
e 173 277
e 173 243
e 173 870
e 174 221
e 174 664
e 174 257
e 174 698
e 175 566
e 175 966
e 175 916
e 175 227
e 177 625
e 177 414
e 178 643
e 178 880
e 180 191
e 180 615
e 180 588
e 181 798
e 181 848
e 181 963
e 182 738
e 182 497
e 182 478
e 183 906
e 183 543
e 183 243
e 183 909
e 185 637
e 185 270
e 185 731
e 186 220
e 186 758
e 186 850
e 187 713
e 187 514
e 187 911
e 188 557
e 188 934
e 188 492
e 188 554
e 190 204
e 190 616
e 190 989
e 191 801
e 191 649
e 191 724
e 192 837
e 192 253
e 192 738
e 192 301
e 192 251
e 194 904
e 194 509
e 194 272
e 194 312
e 194 833
e 194 343
e 195 702
e 195 407
e 197 444
e 197 433
e 197 204
e 197 766
e 197 983
e 197 600
e 197 812
e 198 447
e 198 879
e 198 576
e 198 328
e 198 613
e 198 657
e 199 934
e 199 681
e 199 933
e 199 403
e 200 299
e 200 554
e 200 873
e 200 632
e 201 686
e 201 358
e 201 402
e 202 670
e 202 242
e 202 705
e 202 936
e 203 426
e 203 949
e 203 960
e 204 670
e 204 751
e 205 600
e 205 707
e 206 662
e 206 772
e 208 602
e 208 360
e 208 446
e 208 303
e 208 726
e 208 837
e 210 448
e 210 863
e 210 380
e 210 882
e 212 724
e 212 621
e 212 586
e 212 994
e 212 234
e 212 900
e 213 977
e 213 608
e 214 485
e 214 414
e 214 531
e 216 1000
e 216 323
e 216 648
e 216 571
e 218 839
e 218 410
e 218 308
e 219 621
e 219 791
e 219 606
e 219 991
e 220 441
e 220 502
e 220 236
e 220 610
e 221 934
e 221 807
e 221 377
e 221 937
e 221 554
e 221 257
e 221 531
e 221 456
e 222 708
e 223 479
e 223 758
e 223 379
e 223 572
e 223 231
e 225 554
e 225 778
e 226 778
e 226 825
e 226 931
e 227 755
e 227 510
e 228 949
e 228 745
e 228 457
e 228 862
e 229 413
e 229 386
e 229 598
e 229 532
e 229 255
e 229 750
e 231 672
e 231 448
e 231 980
e 231 946
e 232 458
e 233 746
e 233 235
e 234 492
e 234 979
e 234 336
e 234 654
e 235 559
e 235 358
e 236 240
e 236 995
e 236 470
e 236 246
e 236 733
e 237 479
e 237 894
e 238 909
e 238 241
e 238 960
e 240 542
e 240 677
e 241 292
e 241 594
e 241 540
e 241 826
e 242 402
e 242 754
e 242 894
e 243 899
e 243 448
e 244 388
e 244 453
e 244 838
e 244 814
e 244 680
e 244 577
e 245 421
e 245 969
e 245 465
e 245 744
e 245 734
e 246 399
e 246 927
e 246 928
e 247 867
e 247 625
e 247 467
e 248 803
e 248 497
e 248 694
e 251 474
e 251 837
e 251 613
e 252 936
e 252 857
e 252 386
e 252 672
e 252 714
e 253 894
e 253 574
e 253 521
e 255 734
e 255 997
e 256 789
e 256 729
e 256 573
e 256 850
e 257 437
e 257 971
e 258 280
e 258 969
e 259 331
e 259 863
e 259 625
e 260 460
e 260 450
e 260 635
e 261 711
e 261 521
e 261 855
e 261 471
e 261 979
e 261 501
e 262 487
e 262 961
e 262 561
e 263 758
e 263 308
e 263 885
e 263 511
e 263 568
e 264 433
e 264 460
e 264 672
e 264 922
e 265 428
e 265 606
e 265 358
e 265 934
e 267 917
e 267 502
e 268 586
e 268 600
e 268 972
e 268 779
e 268 458
e 269 610
e 269 492
e 269 599
e 270 275
e 271 614
e 271 704
e 271 771
e 272 838
e 272 846
e 272 473
e 272 976
e 272 866
e 272 471
e 273 833
e 274 981
e 274 448
e 274 305
e 275 688
e 275 635
e 275 352
e 275 753
e 276 834
e 276 855
e 276 880
e 276 492
e 277 948
e 279 311
e 279 692
e 280 369
e 280 997
e 280 456
e 280 621
e 283 610
e 283 465
e 283 511
e 284 719
e 284 643
e 284 846
e 285 698
e 285 620
e 285 348
e 285 291
e 287 710
e 287 779
e 287 327
e 287 798
e 287 432
e 288 990
e 288 754
e 288 928
e 289 463
e 289 693
e 289 601
e 290 555
e 290 392
e 290 895
e 291 810
e 291 738
e 291 808
e 292 751
e 292 939
e 293 485
e 293 684
e 294 497
e 294 443
e 294 419
e 294 353
e 297 731
e 297 546
e 297 308
e 297 986
e 297 742
e 297 939
e 299 544
e 299 969
e 299 371
e 299 402
e 300 723
e 300 812
e 300 646
e 300 483
e 301 921
e 301 808
e 301 518
e 302 491
e 302 809
e 302 414
e 302 551
e 303 551
e 303 848
e 303 336
e 304 611
e 304 323
e 304 713
e 304 646
e 304 980
e 304 357
e 305 456
e 305 847
e 307 817
e 307 601
e 307 350
e 307 849
e 308 627
e 308 496
e 308 968
e 309 922
e 309 513
e 311 501
e 311 968
e 311 946
e 311 377
e 311 440
e 312 675
e 312 336
e 312 980
e 312 497
e 313 652
e 313 497
e 313 804
e 313 553
e 313 771
e 314 747
e 314 653
e 314 924
e 314 918
e 315 610
e 315 650
e 315 692
e 315 602
e 315 547
e 316 385
e 316 396
e 316 478
e 316 872
e 318 380
e 318 557
e 318 392
e 319 903
e 319 653
e 320 908
e 320 668
e 320 354
e 320 828
e 323 817
e 323 989
e 323 896
e 324 556
e 324 981
e 326 754
e 326 334
e 326 652
e 327 675
e 327 981
e 327 588
e 328 711
e 328 427
e 328 388
e 328 467
e 330 915
e 330 338
e 330 869
e 330 802
e 331 487
e 333 716
e 333 532
e 333 958
e 333 994
e 334 971
e 334 492
e 336 869
e 338 923
e 338 938
e 338 402
e 341 925
e 343 816
e 343 544
e 345 587
e 345 348
e 345 555
e 346 522
e 347 427
e 347 501
e 348 442
e 348 980
e 348 550
e 349 646
e 349 770
e 349 723
e 349 802
e 349 764
e 350 716
e 350 427
e 350 596
e 351 521
e 351 814
e 351 543
e 351 847
e 351 817
e 352 521
e 352 562
e 352 958
e 352 427
e 352 631
e 353 781
e 353 449
e 354 934
e 354 914
e 357 633
e 357 760
e 357 736
e 357 660
e 358 899
e 360 873
e 361 545
e 361 686
e 361 990
e 361 781
e 361 365
e 363 924
e 363 465
e 363 979
e 363 670
e 365 877
e 365 782
e 369 948
e 369 870
e 370 900
e 370 416
e 370 550
e 371 444
e 371 814
e 371 585
e 371 677
e 371 645
e 372 537
e 372 391
e 372 980
e 372 745
e 372 765
e 372 729
e 373 890
e 373 652
e 374 813
e 374 450
e 374 620
e 374 567
e 375 542
e 375 724
e 375 548
e 375 922
e 379 900
e 379 546
e 379 426
e 379 901
e 379 880
e 379 839
e 379 477
e 380 479
e 380 561
e 380 608
e 381 447
e 381 541
e 381 620
e 381 645
e 381 484
e 383 747
e 383 486
e 384 485
e 384 833
e 384 609
e 384 525
e 385 965
e 386 643
e 386 784
e 388 577
e 388 900
e 388 767
e 388 729
e 389 623
e 389 391
e 389 863
e 391 770
e 391 593
e 391 653
e 392 641
e 392 649
e 392 807
e 396 487
e 397 543
e 397 525
e 397 457
e 397 763
e 397 939
e 397 567
e 399 504
e 399 736
e 399 556
e 399 952
e 402 562
e 402 479
e 402 895
e 403 970
e 404 762
e 404 492
e 404 789
e 407 436
e 407 450
e 407 857
e 409 697
e 409 744
e 409 614
e 410 935
e 410 832
e 410 805
e 410 754
e 411 751
e 411 899
e 411 611
e 412 496
e 412 677
e 412 523
e 412 764
e 413 979
e 414 579
e 414 713
e 414 534
e 414 510
e 414 645
e 415 922
e 415 939
e 415 913
e 417 967
e 417 850
e 419 424
e 419 553
e 420 909
e 421 923
e 421 931
e 423 844
e 424 573
e 424 762
e 426 965
e 426 669
e 426 465
e 426 798
e 428 645
e 428 782
e 429 707
e 429 514
e 431 782
e 431 684
e 431 895
e 432 434
e 433 882
e 433 824
e 434 485
e 435 731
e 435 962
e 435 924
e 436 765
e 436 496
e 436 952
e 436 613
e 437 968
e 437 548
e 438 486
e 438 670
e 438 548
e 438 440
e 439 653
e 439 979
e 439 694
e 439 546
e 440 693
e 440 727
e 440 896
e 441 838
e 441 766
e 442 681
e 442 686
e 443 921
e 444 788
e 446 639
e 446 635
e 448 910
e 448 995
e 449 670
e 449 956
e 449 681
e 450 802
e 451 880
e 451 488
e 451 813
e 452 936
e 452 736
e 452 680
e 453 907
e 453 691
e 453 534
e 453 834
e 453 496
e 455 600
e 455 576
e 455 677
e 455 884
e 458 546
e 458 793
e 459 562
e 459 598
e 459 707
e 459 542
e 460 812
e 460 734
e 462 487
e 462 621
e 462 793
e 463 526
e 463 904
e 466 772
e 466 790
e 466 949
e 466 491
e 467 922
e 467 974
e 467 899
e 467 867
e 467 877
e 470 631
e 470 589
e 471 718
e 471 525
e 471 825
e 473 553
e 473 618
e 474 614
e 474 841
e 475 784
e 475 668
e 477 615
e 477 956
e 478 762
e 478 559
e 483 495
e 483 965
e 483 755
e 483 1000
e 484 879
e 484 497
e 485 594
e 485 684
e 487 771
e 488 793
e 491 617
e 491 833
e 492 908
e 492 953
e 493 758
e 493 966
e 494 915
e 494 699
e 494 995
e 495 984
e 495 670
e 495 803
e 496 802
e 496 801
e 496 727
e 497 923
e 500 870
e 500 577
e 501 699
e 501 620
e 502 822
e 502 684
e 502 965
e 502 996
e 503 688
e 503 566
e 503 998
e 504 879
e 504 711
e 506 809
e 506 885
e 506 624
e 506 751
e 507 547
e 507 944
e 507 995
e 507 743
e 509 669
e 509 610
e 509 839
e 510 994
e 511 884
e 511 807
e 513 701
e 513 984
e 514 718
e 514 839
e 517 534
e 517 854
e 517 640
e 518 666
e 518 542
e 518 680
e 519 641
e 519 839
e 519 693
e 520 788
e 520 917
e 520 873
e 520 665
e 522 593
e 522 624
e 523 812
e 523 1000
e 523 985
e 523 937
e 525 621
e 525 751
e 525 932
e 525 641
e 526 594
e 528 666
e 529 747
e 529 548
e 529 788
e 531 905
e 531 749
e 531 704
e 532 934
e 534 784
e 537 743
e 537 763
e 537 995
e 537 570
e 537 869
e 537 770
e 538 577
e 539 981
e 539 959
e 539 682
e 539 830
e 540 802
e 541 557
e 542 745
e 542 866
e 542 972
e 543 577
e 543 777
e 543 602
e 543 726
e 544 917
e 544 806
e 545 867
e 546 601
e 546 893
e 547 586
e 547 853
e 548 884
e 548 574
e 550 732
e 550 865
e 551 921
e 551 843
e 551 800
e 554 808
e 554 884
e 555 868
e 557 610
e 557 958
e 557 584
e 559 854
e 561 576
e 561 931
e 563 580
e 563 983
e 563 925
e 564 641
e 564 782
e 566 968
e 568 654
e 568 629
e 569 718
e 569 594
e 569 574
e 570 933
e 570 826
e 570 854
e 570 903
e 571 576
e 572 899
e 574 781
e 576 923
e 577 873
e 580 857
e 580 790
e 584 849
e 585 642
e 585 995
e 585 631
e 586 978
e 586 617
e 586 665
e 586 647
e 586 747
e 587 708
e 588 652
e 588 976
e 589 942
e 589 980
e 589 653
e 590 820
e 590 649
e 590 870
e 590 829
e 592 994
e 592 849
e 594 870
e 595 650
e 595 873
e 595 979
e 596 601
e 596 732
e 597 714
e 597 704
e 598 911
e 598 967
e 599 933
e 599 942
e 599 764
e 599 895
e 601 713
e 606 692
e 606 798
e 607 872
e 607 777
e 607 941
e 608 962
e 609 904
e 609 757
e 610 740
e 611 885
e 613 648
e 613 938
e 613 789
e 613 664
e 614 824
e 615 627
e 616 885
e 616 917
e 617 996
e 617 960
e 618 903
e 618 909
e 620 913
e 620 907
e 620 905
e 621 983
e 621 911
e 621 732
e 623 922
e 624 714
e 624 880
e 625 859
e 625 806
e 627 755
e 627 798
e 627 702
e 629 848
e 631 847
e 632 646
e 633 896
e 633 635
e 634 976
e 634 770
e 635 826
e 635 966
e 637 672
e 639 805
e 639 1000
e 639 663
e 640 642
e 640 852
e 640 763
e 641 841
e 641 701
e 642 991
e 643 778
e 643 710
e 643 910
e 647 989
e 648 984
e 648 810
e 649 762
e 649 982
e 650 662
e 650 799
e 651 901
e 651 686
e 651 652
e 652 861
e 652 774
e 652 867
e 653 938
e 654 917
e 657 911
e 657 769
e 657 849
e 660 998
e 660 820
e 663 932
e 663 960
e 664 879
e 664 925
e 665 762
e 665 705
e 665 995
e 666 827
e 668 760
e 668 765
e 668 932
e 668 727
e 669 927
e 669 867
e 670 849
e 670 738
e 672 743
e 677 917
e 680 853
e 681 753
e 682 961
e 682 738
e 684 733
e 685 825
e 686 965
e 686 791
e 686 986
e 688 762
e 688 745
e 691 757
e 691 903
e 691 859
e 692 857
e 694 733
e 697 894
e 697 849
e 698 928
e 698 745
e 699 732
e 699 743
e 702 948
e 702 706
e 704 709
e 705 767
e 705 845
e 705 846
e 706 748
e 707 979
e 708 997
e 708 805
e 708 710
e 709 806
e 710 847
e 710 982
e 710 788
e 711 811
e 711 765
e 713 747
e 713 811
e 714 980
e 716 922
e 716 907
e 716 720
e 717 793
e 717 874
e 717 808
e 718 827
e 718 910
e 719 753
e 719 860
e 720 822
e 723 928
e 724 788
e 724 749
e 724 766
e 724 801
e 726 910
e 729 978
e 729 746
e 730 771
e 730 927
e 731 834
e 732 974
e 732 786
e 733 817
e 733 869
e 734 963
e 736 834
e 738 881
e 740 859
e 742 827
e 743 772
e 743 800
e 744 779
e 745 811
e 746 983
e 747 901
e 748 843
e 749 914
e 750 870
e 751 793
e 751 807
e 751 778
e 753 960
e 753 806
e 754 890
e 755 813
e 757 774
e 764 846
e 765 850
e 766 878
e 767 941
e 767 799
e 770 936
e 772 822
e 774 786
e 774 814
e 774 893
e 777 967
e 778 906
e 778 911
e 778 930
e 779 860
e 781 824
e 786 900
e 789 974
e 790 860
e 790 946
e 793 809
e 793 828
e 800 886
e 801 970
e 804 878
e 804 965
e 806 961
e 806 808
e 807 855
e 808 991
e 811 938
e 811 980
e 812 916
e 814 838
e 814 985
e 816 865
e 816 872
e 822 913
e 824 996
e 824 916
e 826 878
e 828 923
e 830 981
e 832 879
e 832 965
e 833 837
e 833 850
e 839 879
e 841 859
e 841 998
e 845 893
e 846 850
e 848 906
e 848 868
e 850 918
e 850 882
e 852 994
e 852 881
e 853 944
e 857 997
e 860 963
e 861 958
e 861 908
e 862 874
e 866 913
e 867 952
e 868 986
e 868 991
e 869 890
e 872 990
e 872 877
e 874 922
e 877 936
e 881 970
e 882 1000
e 884 917
e 885 961
e 886 944
e 893 917
e 893 956
e 894 918
e 895 972
e 900 928
e 901 939
e 901 935
e 904 939
e 908 952
e 908 945
e 909 985
e 911 938
e 914 915
e 916 955
e 918 935
e 923 936
e 924 936
e 935 990
e 953 955
e 959 985
e 961 985
